%chk=1.chk
%nprocshared=8
%mem=10gb
# b3lyp/cc-pVTZ 6d 10f Int=NoBasisTransform NoSymm

1

0 1
H 1 0 0 

