%chk=1.chk
%nprocshared=8
%mem=2gb
# b3lyp/cc-pVTZ 6d 10f Int=NoBasisTransform NoSymm

1

0 1
C   0.000000   0.000000   0.000000  

