%chk=test.chk
%nprocshared=8
%mem=4gb
# hf/aug-cc-pVTZ 6d 10f Int=NoBasisTransform NoSymm

1

-2 2
H   0.000000   0.000000   0.000000  

